% seed = 0

mint = 39;
% maxt = 230;

nActs = 92;
dur = [0,3,2,3,4,4,3,2,2,5,1,2,3,4,2,4,4,3,3,3,2,1,1,2,3,1,6,4,4,3,4,2,5,2,3,2,1,3,1,2,3,3,4,2,3,2,2,4,3,3,1,3,1,2,1,3,2,3,2,2,2,1,2,4,4,2,1,2,1,3,2,3,1,2,4,1,1,2,1,6,5,2,2,1,1,2,1,1,5,2,5,0];

nSkills = 9;
sreq = [| 0,0,0,0,0,0,0,0,0,
	| 0,0,0,0,0,0,2,1,1,
	| 0,0,0,0,1,0,0,0,0,
	| 0,0,0,0,0,0,1,0,1,
	| 0,0,0,0,0,0,0,1,0,
	| 0,0,0,1,1,1,0,2,0,
	| 0,0,0,0,1,1,0,1,0,
	| 0,0,0,1,1,1,0,1,1,
	| 0,0,0,0,0,0,0,1,0,
	| 0,0,0,0,1,0,0,2,0,
	| 0,0,0,2,0,0,0,0,0,
	| 0,1,0,0,1,2,0,0,0,
	| 0,0,0,0,2,0,1,1,0,
	| 0,0,0,1,2,0,0,0,1,
	| 0,0,0,0,1,1,0,2,1,
	| 0,0,0,0,2,1,0,2,0,
	| 0,0,0,1,1,0,0,1,1,
	| 0,0,0,0,0,0,0,1,0,
	| 0,0,0,0,0,1,1,1,0,
	| 0,0,0,0,0,0,1,3,1,
	| 0,0,0,0,0,1,0,2,0,
	| 0,0,0,0,1,0,1,0,1,
	| 0,0,0,0,1,1,2,1,0,
	| 0,0,0,0,2,1,0,2,0,
	| 0,0,0,0,0,0,1,1,0,
	| 0,0,0,0,1,0,0,0,0,
	| 0,0,0,0,0,1,1,2,1,
	| 0,0,0,0,0,0,0,1,0,
	| 0,0,0,0,2,1,0,0,1,
	| 0,0,0,1,0,0,1,3,0,
	| 0,0,0,0,0,2,0,3,0,
	| 0,0,0,0,1,0,0,1,0,
	| 0,0,0,0,0,1,2,2,0,
	| 0,0,0,0,1,0,0,0,1,
	| 0,0,0,0,0,1,1,1,1,
	| 0,0,0,1,0,0,0,0,0,
	| 0,0,0,1,0,1,0,2,0,
	| 0,0,0,0,0,1,1,1,0,
	| 0,0,0,1,1,1,0,0,0,
	| 0,0,0,0,0,0,0,1,2,
	| 0,0,0,1,0,1,1,1,1,
	| 1,0,0,2,1,0,0,0,1,
	| 0,0,0,1,0,0,0,0,0,
	| 0,0,0,0,3,0,0,0,0,
	| 0,0,0,2,0,0,0,0,0,
	| 0,0,0,1,1,0,0,1,2,
	| 0,0,0,1,0,1,1,1,0,
	| 0,0,0,0,0,1,0,3,1,
	| 0,0,0,0,0,2,0,1,0,
	| 0,0,0,0,1,3,0,1,0,
	| 0,0,0,0,1,0,0,1,1,
	| 0,0,0,0,0,0,1,3,0,
	| 0,0,0,0,0,0,0,1,0,
	| 0,0,0,0,0,0,1,1,1,
	| 0,0,0,0,0,1,0,2,1,
	| 1,0,0,0,1,1,0,0,0,
	| 0,0,0,0,0,0,0,1,0,
	| 0,0,0,0,0,1,1,0,0,
	| 0,1,0,0,0,0,0,1,0,
	| 0,0,0,0,1,0,0,0,0,
	| 0,0,0,0,1,0,1,2,1,
	| 0,0,0,1,1,1,0,1,1,
	| 0,0,0,1,0,0,0,0,0,
	| 0,0,0,0,2,0,0,3,0,
	| 0,0,0,1,1,0,0,1,0,
	| 0,0,0,0,0,0,0,2,0,
	| 0,0,0,1,0,1,1,0,0,
	| 0,0,1,0,1,1,0,2,0,
	| 0,0,0,0,0,1,0,2,0,
	| 0,0,0,0,0,0,0,1,1,
	| 0,0,0,0,0,0,1,1,0,
	| 0,0,0,1,0,0,2,1,1,
	| 0,0,0,1,0,1,1,1,0,
	| 0,0,0,0,0,0,1,1,0,
	| 0,0,0,0,1,0,0,0,0,
	| 0,0,0,0,0,3,0,1,1,
	| 0,0,0,1,0,1,0,2,0,
	| 0,0,0,0,1,2,0,0,1,
	| 0,0,0,0,1,0,0,0,0,
	| 0,0,0,0,0,2,0,0,1,
	| 0,0,0,0,2,1,1,0,1,
	| 0,0,0,0,2,0,1,2,0,
	| 0,0,0,0,0,1,0,1,0,
	| 0,0,0,2,1,1,0,1,0,
	| 0,0,0,0,1,0,0,2,0,
	| 0,0,1,0,0,0,1,1,0,
	| 0,0,0,1,0,0,0,0,0,
	| 0,0,1,1,0,0,0,1,0,
	| 1,0,0,0,2,0,0,0,0,
	| 0,0,0,0,0,0,0,2,0,
	| 0,0,0,0,1,0,0,1,0,
	| 0,0,0,0,0,0,0,0,0, |];

% SumOfsreq = 289;

nResources = 17;
mastery = [| false,false,false,false,true,true,false,false,false,
	| true,true,true,false,true,true,true,true,true,
	| false,false,false,true,true,true,false,false,false,
	| false,false,false,false,true,true,false,false,false,
	| false,false,false,true,true,true,false,false,false,
	| false,false,false,false,false,false,false,false,true,
	| false,false,false,false,false,false,true,true,true,
	| false,false,false,true,true,true,false,false,false,
	| false,false,false,false,false,false,false,true,true,
	| false,false,false,false,false,false,true,true,true,
	| false,false,false,false,false,false,true,true,true,
	| false,false,false,true,true,true,false,false,false,
	| false,false,false,false,false,false,false,true,true,
	| false,false,false,false,false,false,false,false,true,
	| false,false,false,false,true,true,false,false,false,
	| false,false,false,false,false,false,false,true,true,
	| false,false,false,false,false,true,false,false,false, |];

nPrecs = 166;
pred = [1,1,1,2,2,2,3,3,3,4,4,4,5,5,5,6,6,6,7,7,8,8,8,9,9,9,10,10,11,11,11,12,12,13,13,13,14,14,15,15,15,16,16,16,17,17,18,18,18,19,19,20,20,21,21,22,22,22,23,23,24,25,25,26,26,26,27,28,28,28,29,29,29,30,30,30,31,31,32,32,33,33,34,34,34,35,35,35,36,37,38,38,39,40,40,40,41,41,42,43,43,44,44,45,46,46,47,47,47,48,48,49,50,50,51,52,53,54,54,54,55,55,56,57,58,58,59,59,60,61,61,61,62,63,64,65,66,67,67,68,69,70,71,72,73,74,75,75,76,76,77,78,79,79,80,81,82,83,84,85,86,87,88,89,90,91];
succ = [2,3,4,9,10,20,13,47,16,64,5,40,11,6,7,21,14,8,34,68,67,75,15,17,18,65,41,54,35,12,23,61,29,42,38,66,27,46,33,50,48,25,43,22,27,70,49,19,30,28,32,58,55,59,24,69,38,80,26,44,25,67,76,28,29,56,37,84,31,48,81,36,45,41,60,36,83,72,34,52,36,37,66,85,71,58,68,48,73,39,57,51,42,85,62,56,59,46,53,50,44,66,51,83,58,52,79,71,56,81,91,77,57,70,78,63,59,77,91,61,79,63,89,83,71,72,82,77,74,90,70,63,65,67,68,80,90,85,69,72,82,82,84,74,88,75,78,87,78,87,89,91,81,80,88,87,84,86,86,86,89,88,90,92,92,92];

nUnrels = 2844;
unpred = [2,2,2,2,2,2,2,2,2,2,2,2,2,2,2,2,2,2,2,2,2,2,2,2,2,2,2,2,2,2,2,2,2,2,2,3,3,3,3,3,3,3,3,3,3,3,3,3,3,3,3,3,3,3,3,3,3,3,3,3,3,3,3,3,3,3,3,3,3,3,3,3,3,3,3,3,3,3,3,3,3,3,3,3,3,3,3,4,4,4,4,4,4,4,4,4,4,4,4,4,4,4,4,4,4,4,4,5,5,5,5,5,5,5,5,5,5,5,5,5,5,5,5,5,5,5,5,5,5,5,5,5,6,6,6,6,6,6,6,6,6,6,6,6,6,6,6,6,6,6,6,6,6,6,6,6,6,6,6,6,6,6,6,6,6,6,6,6,6,6,6,6,6,6,7,7,7,7,7,7,7,7,7,7,7,7,7,7,7,7,7,7,7,7,7,7,7,7,7,7,7,7,7,7,7,7,7,7,7,7,7,7,7,7,7,7,7,7,7,7,7,7,7,7,7,7,7,7,7,7,7,7,7,7,7,7,7,7,7,7,7,7,8,8,8,8,8,8,8,8,8,8,8,8,8,8,8,8,8,8,8,8,8,8,8,8,8,8,8,8,8,8,8,8,8,8,8,8,8,8,8,8,8,8,8,8,8,8,8,8,8,8,8,8,8,8,9,9,9,9,9,9,9,9,9,9,9,9,9,9,9,9,9,9,9,9,9,9,9,9,9,9,9,9,9,9,9,9,9,9,9,10,10,10,10,10,10,10,10,10,10,10,10,10,10,10,10,10,10,10,10,10,10,10,10,10,10,10,10,10,10,10,10,10,10,10,10,10,10,10,10,10,10,10,10,10,10,10,10,10,10,10,10,10,10,10,11,11,11,11,11,11,11,11,11,11,11,11,11,11,11,11,11,11,11,11,11,11,11,11,11,11,11,11,11,11,11,11,11,11,11,11,11,11,11,11,11,11,12,12,12,12,12,12,12,12,12,12,12,12,12,12,12,12,12,12,12,12,12,12,12,12,12,12,12,12,12,12,12,12,12,12,12,12,12,12,12,12,12,12,12,12,12,12,12,12,12,12,12,12,12,12,12,12,12,12,12,12,13,13,13,13,13,13,13,13,13,13,13,13,13,13,13,13,13,13,13,13,13,13,13,13,13,13,13,13,13,13,13,13,13,13,13,13,13,13,13,13,13,13,13,13,13,13,13,13,13,13,13,13,13,13,13,13,13,13,13,13,13,13,14,14,14,14,14,14,14,14,14,14,14,14,14,14,14,14,14,14,14,14,14,14,14,14,14,14,14,14,14,14,14,14,14,14,14,14,14,14,14,14,14,14,14,14,14,14,14,14,14,14,15,15,15,15,15,15,15,15,15,15,15,15,15,15,15,15,15,15,15,15,15,15,15,15,15,15,15,15,15,15,15,15,15,15,15,15,15,15,15,15,15,15,15,15,15,15,15,15,15,15,15,15,15,16,16,16,16,16,16,16,16,16,16,16,16,16,16,16,16,16,16,16,16,16,16,16,16,16,16,16,16,16,16,16,16,16,16,16,16,16,16,16,16,16,16,16,16,16,16,16,16,16,16,17,17,17,17,17,17,17,17,17,17,17,17,17,17,17,17,17,17,17,17,17,17,17,17,17,17,17,17,17,17,17,17,17,17,17,17,17,17,17,17,17,17,17,17,17,17,17,17,17,17,17,17,17,17,17,17,17,17,17,17,17,17,18,18,18,18,18,18,18,18,18,18,18,18,18,18,18,18,18,18,18,18,18,18,18,18,18,18,18,18,18,18,18,18,18,18,18,18,19,19,19,19,19,19,19,19,19,19,19,19,19,19,19,19,19,19,19,19,19,19,19,19,19,19,19,19,19,19,19,19,19,19,19,19,19,19,19,19,19,19,19,19,19,19,20,20,20,20,20,20,20,20,20,20,20,20,20,20,20,20,20,20,20,20,20,20,20,20,20,20,20,20,20,20,20,20,20,20,20,20,20,20,20,20,20,20,20,20,20,20,20,20,20,21,21,21,21,21,21,21,21,21,21,21,21,21,21,21,21,21,21,21,21,21,21,21,21,21,21,21,21,21,21,21,21,21,21,21,21,21,21,21,21,21,21,21,21,21,21,21,21,21,21,21,21,21,22,22,22,22,22,22,22,22,22,22,22,22,22,22,22,22,22,22,22,22,22,22,22,22,22,22,22,22,22,22,22,22,22,22,22,22,22,22,22,22,22,22,22,22,22,22,22,22,22,22,22,22,22,22,22,23,23,23,23,23,23,23,23,23,23,23,23,23,23,23,23,23,23,23,23,23,23,23,23,23,23,23,23,23,23,23,23,23,23,23,23,23,23,23,23,23,23,23,24,24,24,24,24,24,24,24,24,24,24,24,24,24,24,24,24,24,24,24,24,24,24,24,24,24,24,24,24,24,24,24,24,24,24,24,24,24,24,24,24,24,24,24,24,24,24,24,24,24,24,24,24,25,25,25,25,25,25,25,25,25,25,25,25,25,25,25,25,25,25,25,25,25,25,25,25,25,25,25,25,25,25,25,25,25,25,25,25,25,25,25,25,25,25,25,25,25,25,25,25,25,25,25,25,25,26,26,26,26,26,26,26,26,26,26,26,26,26,26,26,26,26,26,26,26,26,26,26,26,26,26,26,26,26,26,26,26,26,26,26,26,26,26,26,26,26,26,26,26,27,27,27,27,27,27,27,27,27,27,27,27,27,27,27,27,27,27,27,27,27,27,27,27,27,27,27,27,27,27,27,27,27,27,27,27,27,27,27,27,27,27,27,27,27,27,27,27,27,27,27,27,27,27,28,28,28,28,28,28,28,28,28,28,28,28,28,28,28,28,28,28,28,28,28,28,28,28,28,28,28,28,28,28,28,28,28,28,28,28,28,28,28,28,28,28,28,28,28,28,28,28,29,29,29,29,29,29,29,29,29,29,29,29,29,29,29,29,29,29,29,29,29,29,29,29,29,29,29,29,29,29,29,29,29,29,29,29,29,29,29,29,29,29,29,29,29,29,29,29,29,29,29,29,30,30,30,30,30,30,30,30,30,30,30,30,30,30,30,30,30,30,30,30,30,30,30,30,30,30,30,30,30,30,30,30,30,30,30,31,31,31,31,31,31,31,31,31,31,31,31,31,31,31,31,31,31,31,31,31,31,31,31,31,31,31,31,31,31,31,31,31,31,31,31,31,31,31,31,31,31,31,31,31,31,31,31,31,32,32,32,32,32,32,32,32,32,32,32,32,32,32,32,32,32,32,32,32,32,32,32,32,32,32,32,32,32,32,32,32,32,32,32,32,32,32,32,32,32,32,32,32,32,32,33,33,33,33,33,33,33,33,33,33,33,33,33,33,33,33,33,33,33,33,33,33,33,33,33,33,33,33,33,33,33,33,33,33,33,33,33,33,33,33,33,33,33,33,34,34,34,34,34,34,34,34,34,34,34,34,34,34,34,34,34,34,34,34,34,34,34,34,34,34,34,34,34,34,34,34,34,34,34,34,34,34,34,34,34,34,34,34,34,34,34,34,34,34,35,35,35,35,35,35,35,35,35,35,35,35,35,35,35,35,35,35,35,35,35,35,35,35,35,35,35,35,35,35,35,35,35,35,35,35,35,35,35,35,36,36,36,36,36,36,36,36,36,36,36,36,36,36,36,36,36,36,36,36,36,36,36,36,36,36,36,36,36,36,36,36,36,36,36,36,36,36,36,36,36,36,36,36,36,36,36,36,36,36,36,36,37,37,37,37,37,37,37,37,37,37,37,37,37,37,37,37,37,37,37,37,37,37,37,37,37,37,37,37,37,37,37,37,37,37,37,37,37,37,37,37,37,37,37,37,37,38,38,38,38,38,38,38,38,38,38,38,38,38,38,38,38,38,38,38,38,38,38,38,38,38,38,38,38,38,38,38,38,38,38,38,38,38,38,38,38,38,38,38,38,38,38,39,39,39,39,39,39,39,39,39,39,39,39,39,39,39,39,39,39,39,39,39,39,39,39,39,39,39,39,39,39,39,39,39,39,39,39,39,39,39,39,39,39,39,39,40,40,40,40,40,40,40,40,40,40,40,40,40,40,40,40,40,40,40,40,40,40,40,40,40,40,40,40,40,40,40,40,40,40,40,40,40,40,40,40,40,40,41,41,41,41,41,41,41,41,41,41,41,41,41,41,41,41,41,41,41,41,41,41,41,41,41,41,41,41,42,42,42,42,42,42,42,42,42,42,42,42,42,42,42,42,42,42,42,42,42,42,42,42,42,42,42,42,42,42,42,42,42,42,42,42,42,42,42,42,42,42,43,43,43,43,43,43,43,43,43,43,43,43,43,43,43,43,43,43,43,43,43,43,43,43,43,43,43,43,43,43,43,43,43,43,44,44,44,44,44,44,44,44,44,44,44,44,44,44,44,44,44,44,44,44,44,44,44,44,44,44,44,44,44,44,44,44,44,44,44,44,44,44,44,44,44,44,45,45,45,45,45,45,45,45,45,45,45,45,45,45,45,45,45,45,45,45,45,45,45,45,45,45,45,45,45,45,45,45,45,45,45,45,45,45,45,45,45,45,45,46,46,46,46,46,46,46,46,46,46,46,46,46,46,46,46,46,46,46,46,46,46,46,46,46,46,47,47,47,47,47,47,47,47,47,47,47,47,47,47,47,47,47,47,47,47,47,47,47,47,47,47,47,47,47,47,47,47,47,48,48,48,48,48,48,48,48,48,48,48,48,48,48,48,48,48,48,48,48,48,48,48,48,48,48,48,48,48,48,48,48,48,48,48,48,48,48,49,49,49,49,49,49,49,49,49,49,49,49,49,49,49,49,49,49,49,49,49,49,49,49,49,49,49,49,49,49,49,49,49,49,49,49,49,49,49,49,50,50,50,50,50,50,50,50,50,50,50,50,50,50,50,50,50,50,50,50,50,50,50,50,50,50,50,50,50,50,50,50,50,50,51,51,51,51,51,51,51,51,51,51,51,51,51,51,51,51,51,51,51,51,51,51,51,51,51,51,51,51,51,51,51,51,51,51,51,51,51,51,52,52,52,52,52,52,52,52,52,52,52,52,52,52,52,52,52,52,52,52,52,52,52,52,52,52,52,52,52,52,52,53,53,53,53,53,53,53,53,53,53,53,53,53,53,53,53,53,53,53,53,53,53,53,53,53,53,53,53,53,53,53,53,54,54,54,54,54,54,54,54,54,54,54,54,54,54,54,54,54,54,54,54,54,54,54,54,55,55,55,55,55,55,55,55,55,55,55,55,55,55,55,55,55,55,55,55,55,55,56,56,56,56,56,56,56,56,56,56,56,56,56,56,56,56,56,56,56,56,56,56,56,56,56,56,56,56,56,56,56,56,56,56,57,57,57,57,57,57,57,57,57,57,57,57,57,57,57,57,57,57,57,57,57,57,57,57,57,57,57,57,57,57,57,58,58,58,58,58,58,58,58,58,58,58,58,58,58,58,58,58,58,58,58,58,59,59,59,59,59,59,59,59,59,59,59,59,59,59,59,59,59,59,59,59,59,59,59,59,59,59,59,60,60,60,60,60,60,60,60,60,60,60,60,60,60,60,60,60,60,60,60,60,60,60,60,61,61,61,61,61,61,61,61,61,61,61,61,61,61,61,61,61,61,61,61,62,62,62,62,62,62,62,62,62,62,62,62,62,62,62,62,62,62,62,62,62,62,62,62,62,63,63,63,63,63,63,63,63,63,63,63,63,63,63,63,63,63,63,63,63,63,64,64,64,64,64,64,64,64,64,64,64,64,64,64,64,64,64,64,65,65,65,65,65,65,65,65,65,65,65,65,65,65,65,65,65,65,65,65,65,65,65,66,66,66,66,66,66,66,66,66,66,66,66,66,66,66,66,66,66,66,66,66,66,66,66,67,67,67,67,67,67,67,67,67,67,67,67,67,67,67,67,67,67,68,68,68,68,68,68,68,68,68,68,68,68,68,68,68,69,69,69,69,69,69,69,69,69,69,69,69,69,69,69,69,69,69,70,70,70,70,70,70,70,70,70,70,70,70,70,70,70,70,70,71,71,71,71,71,71,71,71,71,71,71,71,71,71,71,71,71,72,72,72,72,72,72,72,72,72,72,72,72,73,73,73,73,73,73,73,73,73,73,73,73,73,73,73,73,74,74,74,74,74,74,74,74,74,74,74,75,75,75,75,75,75,75,75,75,75,75,76,76,76,76,76,76,76,76,76,76,77,77,77,77,77,77,77,77,77,77,77,77,77,78,78,78,78,78,78,78,78,78,78,78,78,79,79,79,79,79,79,79,80,80,80,80,80,80,80,80,80,81,81,81,81,81,81,81,82,82,82,82,82,82,83,83,83,83,83,83,84,84,84,84,84,85,85,85,85,86,86,86,86,87,87,88,88,89,89,90];
unsucc = [3,4,5,6,7,8,11,12,13,14,15,16,21,22,23,24,25,26,29,33,35,38,40,43,44,45,47,50,51,56,57,62,64,68,76,4,5,6,7,8,9,10,11,12,14,15,17,18,19,20,21,23,24,26,27,28,29,30,31,32,33,34,35,36,37,39,40,41,45,46,48,49,52,54,55,58,60,61,62,63,64,65,68,72,73,74,75,9,10,13,16,17,18,19,20,22,30,32,38,41,43,47,49,54,55,60,79,9,10,13,16,17,18,19,20,22,30,32,38,40,41,43,47,49,54,55,60,62,64,65,79,80,7,9,10,11,12,13,16,17,18,19,20,22,23,26,28,29,30,31,32,34,35,38,40,41,43,44,45,47,49,51,54,55,56,60,61,62,64,65,66,68,79,80,8,9,10,11,12,13,14,15,16,17,18,19,20,21,22,23,24,25,26,27,28,29,30,31,32,33,35,36,37,38,39,40,41,42,43,44,45,46,47,48,49,50,51,52,53,54,55,56,57,58,59,60,61,62,63,64,65,67,69,70,73,76,77,79,80,81,82,83,9,10,11,12,13,14,16,17,18,19,20,21,22,23,24,25,26,27,28,29,30,31,32,34,35,38,40,41,43,44,45,46,47,49,51,52,54,55,56,58,60,61,62,63,64,65,66,68,71,72,74,76,79,80,10,11,12,13,14,15,16,20,21,22,23,24,25,26,29,33,35,38,40,43,44,45,47,50,51,54,55,56,57,61,62,64,68,76,79,11,12,13,14,15,16,17,18,19,20,21,22,23,24,25,26,27,28,29,30,31,32,33,34,35,36,37,38,39,40,42,43,44,45,47,48,49,50,51,53,55,56,57,60,62,64,65,66,68,73,76,79,80,81,83,13,14,15,16,17,18,19,20,21,22,24,25,27,30,32,33,34,37,38,39,40,41,42,43,46,47,49,50,52,53,54,55,57,59,60,62,64,65,76,77,79,80,13,14,15,16,17,18,19,20,21,22,23,24,25,26,27,28,30,31,32,33,34,35,37,38,39,40,41,42,43,44,46,47,48,49,50,51,52,53,54,55,56,57,58,59,60,62,64,65,66,68,71,72,74,75,76,77,78,79,80,91,14,15,16,17,18,19,20,21,22,23,24,25,26,27,28,29,30,31,32,33,34,35,36,37,39,40,41,43,44,45,46,47,48,49,50,52,54,55,56,58,60,61,62,63,64,65,67,68,69,70,71,72,73,74,75,76,79,80,81,85,87,88,15,16,17,18,19,20,21,22,23,24,25,26,28,29,30,31,32,33,34,35,36,38,40,41,43,44,45,47,48,49,50,51,54,55,56,57,60,61,62,64,65,66,68,70,73,76,79,80,81,83,16,17,18,19,20,21,22,23,24,25,26,27,28,29,30,31,32,34,35,38,40,41,43,44,45,46,47,49,51,52,54,55,56,58,60,61,62,63,64,65,66,67,68,69,71,72,74,75,76,78,79,80,85,17,18,19,20,21,23,24,26,27,28,29,30,31,32,33,34,35,36,37,39,40,41,42,45,46,47,48,49,52,53,54,55,56,58,59,60,61,62,63,64,65,68,71,72,73,74,75,77,79,81,18,19,20,21,22,23,24,25,26,28,29,30,31,32,33,34,35,36,38,40,41,43,44,45,46,47,48,49,50,51,52,54,55,56,57,58,60,61,62,63,64,65,66,67,68,69,71,72,73,74,75,76,78,79,80,81,83,85,87,88,90,91,20,21,22,23,24,25,26,27,29,33,35,37,38,39,40,42,43,44,45,47,50,51,53,54,55,56,57,61,62,64,65,68,70,76,79,80,20,21,22,23,24,25,26,27,29,30,33,35,36,37,38,39,40,41,42,43,44,45,46,47,49,50,51,53,54,55,56,57,58,59,60,61,62,64,65,68,70,73,76,77,79,80,21,22,23,24,25,26,27,28,29,30,31,32,33,34,35,36,37,38,39,40,41,42,43,44,45,46,47,48,49,50,51,52,53,54,56,57,59,60,61,62,64,65,66,68,70,73,76,77,83,22,23,26,27,28,29,30,31,32,33,34,35,36,37,38,39,40,41,42,43,44,45,46,47,48,49,50,51,52,53,54,55,56,57,58,60,61,62,63,64,65,66,68,70,71,72,73,74,75,79,80,81,83,23,24,25,26,27,28,29,30,31,32,33,34,35,36,37,39,40,41,42,43,44,45,46,47,48,49,50,52,53,54,55,56,58,59,60,61,62,63,64,65,66,67,68,70,71,72,73,74,75,76,77,79,81,85,87,24,25,27,30,32,33,34,35,37,38,39,40,41,42,43,46,47,49,50,52,53,54,55,57,58,59,60,61,62,63,64,65,67,68,69,70,71,76,77,79,80,82,85,26,27,28,29,30,31,32,33,34,35,36,37,38,39,40,41,42,43,44,45,46,47,48,49,50,51,52,53,54,55,56,57,58,59,60,61,62,63,64,65,66,68,70,71,72,73,74,75,77,79,80,81,83,26,27,28,29,30,31,32,33,34,35,36,37,38,39,40,41,42,43,44,45,46,47,48,49,50,51,52,53,54,55,56,57,58,59,60,61,62,63,64,65,66,68,70,71,72,73,74,75,77,79,80,81,83,27,30,32,33,34,35,37,38,39,40,41,42,43,44,46,47,49,50,51,52,53,54,55,57,58,59,60,61,62,63,64,65,66,67,68,69,70,71,76,77,79,80,82,85,28,29,30,31,32,33,34,35,36,38,40,41,43,44,45,46,47,48,49,50,51,52,54,55,56,57,58,60,61,62,63,64,65,66,67,68,69,70,71,72,73,74,75,76,78,79,80,81,83,85,87,88,90,91,29,30,32,33,34,35,36,37,38,39,40,41,42,43,44,45,46,47,49,50,51,52,53,54,55,56,57,58,59,60,61,62,63,64,65,66,67,68,69,70,71,73,76,77,79,80,82,85,30,31,32,33,34,35,37,38,39,40,41,42,43,44,46,47,48,49,50,51,52,53,54,55,56,57,58,59,60,61,62,63,64,65,66,67,68,69,70,71,72,74,75,76,77,78,79,80,82,84,85,91,31,32,33,34,35,37,38,39,40,42,43,44,45,47,48,49,50,51,53,54,55,56,57,61,62,64,65,66,68,70,76,79,80,81,83,32,33,34,35,36,37,38,39,40,41,42,43,44,45,46,47,48,49,50,51,52,53,54,55,56,57,58,59,60,61,62,63,64,65,66,67,68,69,70,71,73,76,77,79,80,81,82,84,85,33,35,36,37,38,39,40,41,42,43,44,45,46,47,48,49,50,51,53,54,55,56,57,58,59,60,61,62,64,65,68,70,72,73,74,75,76,77,78,79,80,81,83,87,88,91,34,35,38,40,41,43,44,45,46,47,48,49,50,51,52,54,55,56,57,58,60,61,62,63,64,65,66,67,68,69,70,71,72,74,75,76,78,79,80,81,83,85,87,91,35,36,37,38,39,40,41,42,43,44,45,46,47,48,49,50,51,52,53,54,55,56,57,58,59,60,61,62,63,64,65,67,68,69,70,72,73,74,75,76,77,78,79,80,81,82,83,87,88,91,36,37,38,39,40,41,42,43,44,45,46,47,49,50,51,52,53,54,55,56,57,59,60,61,62,63,64,65,66,67,69,70,73,76,77,79,80,82,83,85,37,38,39,40,41,42,43,44,45,46,47,48,49,50,51,52,53,54,55,56,57,58,59,60,61,62,63,64,65,66,67,68,69,70,71,72,74,75,76,77,78,79,80,81,82,83,84,85,86,87,89,91,38,40,41,43,44,45,46,47,48,49,50,51,52,54,55,56,57,58,60,61,62,63,64,65,66,67,68,69,70,71,72,73,74,75,76,78,79,80,81,83,85,87,88,90,91,39,40,41,42,43,44,45,46,47,48,49,50,52,53,54,55,56,58,59,60,61,62,63,64,65,66,67,68,69,70,71,72,73,74,75,76,77,79,80,81,82,84,85,87,88,90,40,41,43,44,45,46,47,48,49,50,51,52,54,55,56,57,58,60,61,62,63,64,65,66,67,68,69,70,71,72,73,74,75,76,78,79,80,81,83,85,87,88,90,91,41,42,43,44,45,46,47,48,49,50,51,52,53,54,55,57,58,59,60,61,63,64,66,67,68,69,70,71,72,73,74,75,76,77,78,79,81,82,83,84,87,91,42,43,44,45,47,48,49,50,51,53,54,55,56,57,60,61,62,64,65,66,68,70,73,76,79,80,81,83,43,44,45,46,47,48,49,50,51,52,54,55,56,57,58,60,61,62,63,64,65,66,67,68,69,70,71,72,73,74,75,76,78,79,80,81,83,85,87,88,90,91,45,46,47,48,49,52,53,54,55,56,58,59,60,61,62,63,64,65,67,68,69,71,72,73,74,75,76,77,79,80,81,85,87,88,45,46,47,48,49,50,52,53,54,55,56,57,58,59,60,61,62,63,64,65,67,68,69,70,71,72,73,74,75,76,77,79,80,81,82,83,84,85,86,87,88,89,46,47,48,49,50,51,52,53,54,55,56,57,58,59,60,61,62,63,64,65,66,67,68,69,70,71,72,73,74,75,76,77,78,79,80,81,82,84,85,87,88,90,91,47,48,49,50,51,53,54,55,56,57,59,60,61,62,64,65,66,68,70,73,76,77,79,80,81,83,48,49,50,51,52,53,54,55,57,58,59,60,61,62,63,64,65,66,67,68,69,70,72,73,74,75,76,77,78,82,83,85,91,49,50,51,52,53,54,55,56,57,58,59,60,61,62,63,64,65,66,67,68,69,70,71,72,73,74,75,76,77,78,79,80,82,83,84,85,86,89,50,51,52,53,54,55,56,57,58,59,60,61,62,63,64,65,66,67,68,69,70,71,72,73,74,75,76,78,79,80,81,82,83,84,85,86,87,88,90,91,51,52,53,54,55,56,58,59,60,61,62,63,64,65,66,67,68,69,71,72,73,74,75,76,77,78,79,80,81,85,87,88,90,91,52,53,54,55,56,57,58,59,60,61,62,63,64,65,66,67,68,69,70,71,72,73,74,75,76,77,79,80,81,82,83,84,85,86,87,88,89,90,53,54,55,56,57,58,59,60,61,62,64,65,66,68,70,71,72,73,74,75,76,77,78,79,80,81,83,87,88,90,91,54,55,56,57,58,60,61,62,63,64,65,66,67,68,69,70,71,72,73,74,75,76,78,79,80,81,83,85,87,88,90,91,55,56,57,58,59,60,62,64,65,66,68,71,72,73,74,75,76,78,79,80,81,83,87,88,56,57,58,59,60,61,62,64,65,66,68,70,71,72,73,74,75,76,77,78,83,91,57,58,59,60,61,62,63,64,65,66,67,68,69,70,71,72,73,74,75,76,77,78,79,80,81,82,83,84,85,86,87,88,90,91,58,59,60,61,62,63,64,65,66,67,68,69,70,71,72,73,74,75,76,77,78,79,80,81,82,84,85,87,88,90,91,59,60,61,62,63,64,65,66,67,68,69,70,73,76,77,79,80,81,82,83,85,60,61,62,63,64,65,66,67,68,69,70,71,72,73,74,75,76,78,79,80,81,83,85,87,88,90,91,61,62,63,64,65,66,67,68,69,70,71,72,73,76,77,79,80,81,82,83,84,85,86,89,62,64,65,66,68,71,72,73,74,75,76,77,78,79,80,81,83,87,88,91,63,64,66,67,68,69,70,71,72,73,74,75,76,77,78,79,81,82,83,84,85,86,87,89,91,64,65,66,68,70,71,72,73,74,75,76,77,78,79,80,81,83,87,88,90,91,65,66,67,69,70,71,73,76,77,79,80,81,82,83,84,85,86,89,66,67,68,69,70,71,72,73,74,75,76,77,78,79,81,82,83,84,85,86,87,89,91,67,68,69,70,71,72,73,74,75,76,77,78,79,80,81,82,83,84,85,86,87,88,89,91,68,70,71,72,73,74,75,76,77,78,79,80,81,83,87,88,90,91,69,70,71,73,76,77,79,80,81,82,83,84,85,86,89,70,71,72,73,74,75,76,77,78,79,80,81,83,85,87,88,90,91,71,72,73,74,75,76,77,78,79,80,81,83,85,87,88,90,91,72,73,74,75,76,77,78,79,80,81,82,83,85,87,88,90,91,73,76,77,79,80,81,82,83,84,85,86,89,74,75,76,77,78,79,80,81,82,83,84,85,86,87,89,91,76,77,79,80,81,82,83,84,85,86,89,76,77,79,80,81,82,83,84,85,86,89,77,79,80,81,82,83,84,85,86,89,78,79,80,81,82,83,84,85,86,87,88,90,91,79,80,81,82,83,84,85,86,87,88,89,90,82,83,84,85,86,89,91,81,82,83,84,85,86,87,89,91,82,83,84,85,86,89,91,83,85,87,88,90,91,84,85,87,88,90,91,85,87,88,90,91,87,88,90,91,87,88,90,91,89,91,89,91,90,91,91];

USEFUL_RES = [{},
	{2,6,7,9,10,11,13,14,16},
	{1,2,3,4,5,8,12,15},
	{2,6,7,9,10,11,13,14,16},
	{2,7,9,10,11,13,16},
	{1,2,3,4,5,7,8,9,10,11,12,13,15,16,17},
	{1,2,3,4,5,7,8,9,10,11,12,13,15,16,17},
	{1,2,3,4,5,6,7,8,9,10,11,12,13,14,15,16,17},
	{2,7,9,10,11,13,16},
	{1,2,3,4,5,7,8,9,10,11,12,13,15,16},
	{3,5,8,12},
	{1,2,3,4,5,8,12,15,17},
	{1,2,3,4,5,7,8,9,10,11,12,13,15,16},
	{1,2,3,4,5,6,7,8,9,10,11,12,13,14,15,16},
	{1,2,3,4,5,6,7,8,9,10,11,12,13,14,15,16,17},
	{1,2,3,4,5,7,8,9,10,11,12,13,15,16,17},
	{1,2,3,4,5,6,7,8,9,10,11,12,13,14,15,16},
	{2,7,9,10,11,13,16},
	{1,2,3,4,5,7,8,9,10,11,12,13,15,16,17},
	{2,6,7,9,10,11,13,14,16},
	{1,2,3,4,5,7,8,9,10,11,12,13,15,16,17},
	{1,2,3,4,5,6,7,8,9,10,11,12,13,14,15,16},
	{1,2,3,4,5,7,8,9,10,11,12,13,15,16,17},
	{1,2,3,4,5,7,8,9,10,11,12,13,15,16,17},
	{2,7,9,10,11,13,16},
	{1,2,3,4,5,8,12,15},
	{1,2,3,4,5,6,7,8,9,10,11,12,13,14,15,16,17},
	{2,7,9,10,11,13,16},
	{1,2,3,4,5,6,7,8,9,10,11,12,13,14,15,16,17},
	{2,3,5,7,8,9,10,11,12,13,16},
	{1,2,3,4,5,7,8,9,10,11,12,13,15,16,17},
	{1,2,3,4,5,7,8,9,10,11,12,13,15,16},
	{1,2,3,4,5,7,8,9,10,11,12,13,15,16,17},
	{1,2,3,4,5,6,7,8,9,10,11,12,13,14,15,16},
	{1,2,3,4,5,6,7,8,9,10,11,12,13,14,15,16,17},
	{3,5,8,12},
	{1,2,3,4,5,7,8,9,10,11,12,13,15,16,17},
	{1,2,3,4,5,7,8,9,10,11,12,13,15,16,17},
	{1,2,3,4,5,8,12,15,17},
	{2,6,7,9,10,11,13,14,16},
	{1,2,3,4,5,6,7,8,9,10,11,12,13,14,15,16,17},
	{1,2,3,4,5,6,7,8,9,10,11,12,13,14,15,16},
	{3,5,8,12},
	{1,2,3,4,5,8,12,15},
	{3,5,8,12},
	{1,2,3,4,5,6,7,8,9,10,11,12,13,14,15,16},
	{1,2,3,4,5,7,8,9,10,11,12,13,15,16,17},
	{1,2,3,4,5,6,7,8,9,10,11,12,13,14,15,16,17},
	{1,2,3,4,5,7,8,9,10,11,12,13,15,16,17},
	{1,2,3,4,5,7,8,9,10,11,12,13,15,16,17},
	{1,2,3,4,5,6,7,8,9,10,11,12,13,14,15,16},
	{2,7,9,10,11,13,16},
	{2,7,9,10,11,13,16},
	{2,6,7,9,10,11,13,14,16},
	{1,2,3,4,5,6,7,8,9,10,11,12,13,14,15,16,17},
	{1,2,3,4,5,8,12,15,17},
	{2,7,9,10,11,13,16},
	{1,2,3,4,5,7,8,10,11,12,15,17},
	{2,7,9,10,11,13,16},
	{1,2,3,4,5,8,12,15},
	{1,2,3,4,5,6,7,8,9,10,11,12,13,14,15,16},
	{1,2,3,4,5,6,7,8,9,10,11,12,13,14,15,16,17},
	{3,5,8,12},
	{1,2,3,4,5,7,8,9,10,11,12,13,15,16},
	{1,2,3,4,5,7,8,9,10,11,12,13,15,16},
	{2,7,9,10,11,13,16},
	{1,2,3,4,5,7,8,10,11,12,15,17},
	{1,2,3,4,5,7,8,9,10,11,12,13,15,16,17},
	{1,2,3,4,5,7,8,9,10,11,12,13,15,16,17},
	{2,6,7,9,10,11,13,14,16},
	{2,7,9,10,11,13,16},
	{2,3,5,6,7,8,9,10,11,12,13,14,16},
	{1,2,3,4,5,7,8,9,10,11,12,13,15,16,17},
	{2,7,9,10,11,13,16},
	{1,2,3,4,5,8,12,15},
	{1,2,3,4,5,6,7,8,9,10,11,12,13,14,15,16,17},
	{1,2,3,4,5,7,8,9,10,11,12,13,15,16,17},
	{1,2,3,4,5,6,7,8,9,10,11,12,13,14,15,16,17},
	{1,2,3,4,5,8,12,15},
	{1,2,3,4,5,6,7,8,9,10,11,12,13,14,15,16,17},
	{1,2,3,4,5,6,7,8,9,10,11,12,13,14,15,16,17},
	{1,2,3,4,5,7,8,9,10,11,12,13,15,16},
	{1,2,3,4,5,7,8,9,10,11,12,13,15,16,17},
	{1,2,3,4,5,7,8,9,10,11,12,13,15,16,17},
	{1,2,3,4,5,7,8,9,10,11,12,13,15,16},
	{2,7,9,10,11,13,16},
	{3,5,8,12},
	{2,3,5,7,8,9,10,11,12,13,16},
	{1,2,3,4,5,8,12,15},
	{2,7,9,10,11,13,16},
	{1,2,3,4,5,7,8,9,10,11,12,13,15,16},
	{}];

POTENTIAL_ACT = [{3,6,7,8,10,12,13,14,15,16,17,19,21,22,23,24,26,27,29,31,32,33,34,35,37,38,39,41,42,44,46,47,48,49,50,51,55,56,58,60,61,62,64,65,67,68,69,73,75,76,77,78,79,80,81,82,83,84,85,89,91},
	{2,3,4,5,6,7,8,9,10,12,13,14,15,16,17,18,19,20,21,22,23,24,25,26,27,28,29,30,31,32,33,34,35,37,38,39,40,41,42,44,46,47,48,49,50,51,52,53,54,55,56,57,58,59,60,61,62,64,65,66,67,68,69,70,71,72,73,74,75,76,77,78,79,80,81,82,83,84,85,86,88,89,90,91},
	{3,6,7,8,10,11,12,13,14,15,16,17,19,21,22,23,24,26,27,29,30,31,32,33,34,35,36,37,38,39,41,42,43,44,45,46,47,48,49,50,51,55,56,58,60,61,62,63,64,65,67,68,69,72,73,75,76,77,78,79,80,81,82,83,84,85,87,88,89,91},
	{3,6,7,8,10,12,13,14,15,16,17,19,21,22,23,24,26,27,29,31,32,33,34,35,37,38,39,41,42,44,46,47,48,49,50,51,55,56,58,60,61,62,64,65,67,68,69,73,75,76,77,78,79,80,81,82,83,84,85,89,91},
	{3,6,7,8,10,11,12,13,14,15,16,17,19,21,22,23,24,26,27,29,30,31,32,33,34,35,36,37,38,39,41,42,43,44,45,46,47,48,49,50,51,55,56,58,60,61,62,63,64,65,67,68,69,72,73,75,76,77,78,79,80,81,82,83,84,85,87,88,89,91},
	{2,4,8,14,15,17,20,22,27,29,34,35,40,41,42,46,48,51,54,55,61,62,70,72,76,78,80,81},
	{2,4,5,6,7,8,9,10,13,14,15,16,17,18,19,20,21,22,23,24,25,27,28,29,30,31,32,33,34,35,37,38,40,41,42,46,47,48,49,50,51,52,53,54,55,57,58,59,61,62,64,65,66,67,68,69,70,71,72,73,74,76,77,78,80,81,82,83,84,85,86,88,90,91},
	{3,6,7,8,10,11,12,13,14,15,16,17,19,21,22,23,24,26,27,29,30,31,32,33,34,35,36,37,38,39,41,42,43,44,45,46,47,48,49,50,51,55,56,58,60,61,62,63,64,65,67,68,69,72,73,75,76,77,78,79,80,81,82,83,84,85,87,88,89,91},
	{2,4,5,6,7,8,9,10,13,14,15,16,17,18,19,20,21,22,23,24,25,27,28,29,30,31,32,33,34,35,37,38,40,41,42,46,47,48,49,50,51,52,53,54,55,57,59,61,62,64,65,66,68,69,70,71,72,73,74,76,77,78,80,81,82,83,84,85,86,88,90,91},
	{2,4,5,6,7,8,9,10,13,14,15,16,17,18,19,20,21,22,23,24,25,27,28,29,30,31,32,33,34,35,37,38,40,41,42,46,47,48,49,50,51,52,53,54,55,57,58,59,61,62,64,65,66,67,68,69,70,71,72,73,74,76,77,78,80,81,82,83,84,85,86,88,90,91},
	{2,4,5,6,7,8,9,10,13,14,15,16,17,18,19,20,21,22,23,24,25,27,28,29,30,31,32,33,34,35,37,38,40,41,42,46,47,48,49,50,51,52,53,54,55,57,58,59,61,62,64,65,66,67,68,69,70,71,72,73,74,76,77,78,80,81,82,83,84,85,86,88,90,91},
	{3,6,7,8,10,11,12,13,14,15,16,17,19,21,22,23,24,26,27,29,30,31,32,33,34,35,36,37,38,39,41,42,43,44,45,46,47,48,49,50,51,55,56,58,60,61,62,63,64,65,67,68,69,72,73,75,76,77,78,79,80,81,82,83,84,85,87,88,89,91},
	{2,4,5,6,7,8,9,10,13,14,15,16,17,18,19,20,21,22,23,24,25,27,28,29,30,31,32,33,34,35,37,38,40,41,42,46,47,48,49,50,51,52,53,54,55,57,59,61,62,64,65,66,68,69,70,71,72,73,74,76,77,78,80,81,82,83,84,85,86,88,90,91},
	{2,4,8,14,15,17,20,22,27,29,34,35,40,41,42,46,48,51,54,55,61,62,70,72,76,78,80,81},
	{3,6,7,8,10,12,13,14,15,16,17,19,21,22,23,24,26,27,29,31,32,33,34,35,37,38,39,41,42,44,46,47,48,49,50,51,55,56,58,60,61,62,64,65,67,68,69,73,75,76,77,78,79,80,81,82,83,84,85,89,91},
	{2,4,5,6,7,8,9,10,13,14,15,16,17,18,19,20,21,22,23,24,25,27,28,29,30,31,32,33,34,35,37,38,40,41,42,46,47,48,49,50,51,52,53,54,55,57,59,61,62,64,65,66,68,69,70,71,72,73,74,76,77,78,80,81,82,83,84,85,86,88,90,91},
	{6,7,8,12,15,16,19,21,23,24,27,29,31,33,35,37,38,39,41,47,48,49,50,55,56,58,62,67,68,69,73,76,77,78,80,81,83,84}];
